Minimize
  1 x1 + 2 x2 - 1 x3 + 1 x4
Subject To
  c1: 2 x1 + 1 x2 + 1 x3 - 1 x4 = 3
  c2: 2 x1 - 2 x2 + 1 x3 + 2 x4 = 7
  c3: -1 x1 + 1 x2 - 2 x3 - 1 x4 >= 6
  c4: -1 x1 + 2 x2 - 1 x3 - 1 x4 <= 8
Bounds
  x1 >= 0
  x2 >= 0
  x3 >= 0
  x4 >= 0
End
